language Essence 1.3

letting blksize_delta be
        function(1 --> 9, 2 --> 9, 3 --> 9, 4 --> 9, 5 --> 9, 6 --> 9, 7 --> 9, 8 --> 9, 9 --> 9, 10 --> 9, 11 --> 9,
                 12 --> 9, 13 --> 9, 14 --> 9, 15 --> 9, 16 --> 10, 17 --> 9, 18 --> 9, 19 --> 10, 20 --> 9, 21 --> 9,
                 22 --> 9, 23 --> 9, 24 --> 9, 25 --> 9, 26 --> 10)
letting maxcars be
        function(1 --> 10, 2 --> 10, 3 --> 10, 4 --> 10, 5 --> 10, 6 --> 10, 7 --> 10, 8 --> 10, 9 --> 10, 10 --> 10,
                 11 --> 10, 12 --> 10, 13 --> 10, 14 --> 10, 15 --> 10, 16 --> 10, 17 --> 10, 18 --> 10, 19 --> 10,
                 20 --> 10, 21 --> 10, 22 --> 10, 23 --> 10, 24 --> 10, 25 --> 10, 26 --> 10)
letting n_cars be 237
letting n_classes be 44
letting n_options be 26
letting quantity be
        function(1 --> 10, 2 --> 3, 3 --> 3, 4 --> 3, 5 --> 3, 6 --> 3, 7 --> 3, 8 --> 3, 9 --> 3, 10 --> 73, 11 --> 3,
                 12 --> 22, 13 --> 3, 14 --> 3, 15 --> 3, 16 --> 3, 17 --> 3, 18 --> 3, 19 --> 3, 20 --> 3, 21 --> 3,
                 22 --> 3, 23 --> 3, 24 --> 7, 25 --> 4, 26 --> 3, 27 --> 3, 28 --> 3, 29 --> 6, 30 --> 3, 31 --> 3,
                 32 --> 3, 33 --> 3, 34 --> 3, 35 --> 3, 36 --> 3, 37 --> 3, 38 --> 3, 39 --> 3, 40 --> 3, 41 --> 3,
                 42 --> 3, 43 --> 3, 44 --> 4)
letting usage be
        relation((1, 18), (2, 13), (3, 6), (3, 17), (4, 2), (4, 4), (4, 13), (4, 21), (4, 25), (5, 5), (5, 16), (6, 21),
                 (6, 24), (7, 7), (7, 8), (8, 6), (9, 2), (9, 7), (9, 10), (9, 18), (10, 10), (11, 26), (12, 3),
                 (12, 15), (12, 19), (13, 12), (13, 20), (14, 11), (14, 22), (15, 4), (15, 10), (15, 24), (16, 8),
                 (16, 13), (16, 14), (16, 22), (17, 3), (17, 11), (18, 4), (18, 16), (18, 24), (18, 25), (19, 24),
                 (20, 2), (20, 14), (20, 22), (21, 5), (21, 6), (21, 10), (22, 8), (22, 22), (22, 25), (23, 6), (23, 8),
                 (23, 13), (23, 17), (24, 2), (24, 18), (24, 25), (25, 3), (25, 5), (25, 17), (25, 25), (26, 2),
                 (26, 17), (26, 18), (26, 20), (27, 13), (28, 1), (28, 5), (28, 20), (28, 24), (28, 26), (29, 9),
                 (29, 17), (29, 20), (29, 23), (29, 25), (30, 2), (30, 11), (30, 19), (30, 21), (31, 3), (31, 6),
                 (31, 24), (31, 26), (32, 8), (32, 15), (32, 16), (32, 24), (33, 11), (34, 26), (35, 22), (35, 23),
                 (36, 26), (37, 12), (38, 4), (38, 6), (38, 12), (38, 14), (39, 19), (39, 20), (40, 2), (40, 10),
                 (40, 12), (41, 10), (41, 11), (41, 13), (41, 25), (42, 2), (42, 10), (42, 19), (43, 16), (43, 21),
                 (44, 19), (44, 22))
$ Visualisation for usage
$  1 18
$  2 13
$  3  6
$  3 17
$  4  2
$  4  4
$  4 13
$  4 21
$  4 25
$  5  5
$  5 16
$  6 21
$  6 24
$  7  7
$  7  8
$  8  6
$  9  2
$  9  7
$  9 10
$  9 18
$ 10 10
$ 11 26
$ 12  3
$ 12 15
$ 12 19
$ 13 12
$ 13 20
$ 14 11
$ 14 22
$ 15  4
$ 15 10
$ 15 24
$ 16  8
$ 16 13
$ 16 14
$ 16 22
$ 17  3
$ 17 11
$ 18  4
$ 18 16
$ 18 24
$ 18 25
$ 19 24
$ 20  2
$ 20 14
$ 20 22
$ 21  5
$ 21  6
$ 21 10
$ 22  8
$ 22 22
$ 22 25
$ 23  6
$ 23  8
$ 23 13
$ 23 17
$ 24  2
$ 24 18
$ 24 25
$ 25  3
$ 25  5
$ 25 17
$ 25 25
$ 26  2
$ 26 17
$ 26 18
$ 26 20
$ 27 13
$ 28  1
$ 28  5
$ 28 20
$ 28 24
$ 28 26
$ 29  9
$ 29 17
$ 29 20
$ 29 23
$ 29 25
$ 30  2
$ 30 11
$ 30 19
$ 30 21
$ 31  3
$ 31  6
$ 31 24
$ 31 26
$ 32  8
$ 32 15
$ 32 16
$ 32 24
$ 33 11
$ 34 26
$ 35 22
$ 35 23
$ 36 26
$ 37 12
$ 38  4
$ 38  6
$ 38 12
$ 38 14
$ 39 19
$ 39 20
$ 40  2
$ 40 10
$ 40 12
$ 41 10
$ 41 11
$ 41 13
$ 41 25
$ 42  2
$ 42 10
$ 42 19
$ 43 16
$ 43 21
$ 44 19
$ 44 22

